7713
10797
12564
6503
11464
12978
5942
3750
5364
3914
6502
18862
17044
12712
4248
9195
3069
4674
5372
7223
4904
11232
10688
3309
7496
4568
18948
4359
4873
9994
18892
13543
13144
11886
12712
809
5308
13022
18063
5578
3725
8049
878
11086
9337
2985
1905
9423
5473
7163
12609
2412
1364
4210
9152
14828
17407
1444
13921
4176
2239
6647
8920
8222
10494
11022
2198
23335
13397
4843
16878
6674
2949
19512
2511
5399
16445
10517
10425
1320
16863
9724
13480
18473
7418
11343
2490
21754
1514
4858
2374
9422
19699
26309
7508
21313
20618
8547
16140